214
354
507
161
208
493
297
322
535
199
121
204
103
273
405
160
208
258
575
148
686
190
599
657
671
303
287
272
445
280
186
307
355
213
176
167
425
270
235
84
237
224
318
354
1383
204
217
444
223
523
227
285
320
209
245
956
151
503
313
335
258
264
168
618
223
445
440
379
174
781
247
415
173
286
178
203
253
187
125
441
212
518
316
191
386
657
817
231
475
320
701
247
213
146
361
154
369
272
160
164
